VRPTWMS/instances/mip/fuel/4/N4-C_DV100-C_SV30_F6_0_No_1.log

Gurobi 6.0.4 (win64) logging started 06/21/15 19:06:14

Read LP format model from file C:\MT\repository\VRPTWMS\instances\mip\fuel\N4-C_DV100-C_SV30_F6_0_No_1.lp
Reading time = 0.01 seconds
(null): 129 rows, 76 columns, 459 nonzeros
Optimize a model with 129 rows, 76 columns and 459 nonzeros
Model has 80 quadratic constraints
Coefficient statistics:
  Matrix range    [1e+00, 1e+06]
  Objective range [1e+05, 1e+07]
  Bounds range    [1e+00, 1e+06]
  RHS range       [1e+00, 1e+06]
Presolve removed 25 rows and 15 columns
Presolve time: 0.01s
Presolved: 225 rows, 126 columns, 962 nonzeros
Variable types: 56 continuous, 70 integer (48 binary)
Found heuristic solution: objective 4.182600e+07

Root relaxation: objective 1.145110e+07, 27 iterations, 0.00 seconds

    Nodes    |    Current Node    |     Objective Bounds      |     Work
 Expl Unexpl |  Obj  Depth IntInf | Incumbent    BestBd   Gap | It/Node Time

     0     0 1.1451e+07    0    2 4.1826e+07 1.1451e+07  72.6%     -    0s
H    0     0                    3.170300e+07 1.1451e+07  63.9%     -    0s
     0     0 1.1838e+07    0   20 3.1703e+07 1.1838e+07  62.7%     -    0s
     0     0 1.1944e+07    0   23 3.1703e+07 1.1944e+07  62.3%     -    0s
H    0     0                    3.159960e+07 1.1944e+07  62.2%     -    0s
     0     0 1.2089e+07    0   35 3.1600e+07 1.2089e+07  61.7%     -    0s
H    0     0                    2.219370e+07 1.2089e+07  45.5%     -    0s
     0     0 1.2407e+07    0   24 2.2194e+07 1.2407e+07  44.1%     -    0s
     0     0 1.2714e+07    0   30 2.2194e+07 1.2714e+07  42.7%     -    0s
H    0     0                    2.213370e+07 1.2714e+07  42.6%     -    0s
     0     0 1.2714e+07    0   30 2.2134e+07 1.2714e+07  42.6%     -    0s
     0     0 1.2714e+07    0   26 2.2134e+07 1.2714e+07  42.6%     -    0s
H    0     0                    2.159090e+07 1.2714e+07  41.1%     -    0s

Cutting planes:
  Cover: 5
  Implied bound: 14
  Clique: 6
  MIR: 4
  GUB cover: 1

Explored 0 nodes (181 simplex iterations) in 0.05 seconds
Thread count was 2 (of 4 available processors)

Optimal solution found (tolerance 1.00e-04)
Best objective 2.159090000000e+07, best bound 2.159090000000e+07, gap 0.0%
k_c1	120000.0
k_c2	30000.0
k_c3	80000.0
k_c4	1000000.0
k_dN	-0.0
o_1	-0.0
o_2	-0.0
o_3	-0.0
o_4	-0.0
p_1	-0.0
p_2	-0.0
p_3	-0.0
p_4	-0.0
phi_c1	43372.0
phi_c2	15287.0
phi_c3	22833.0
phi_c4	50420.0
phi_dN	-0.0
pi_c1	262832.0
pi_c2	262833.0
pi_c3	290419.0
pi_c4	300000.0
pi_dN	-0.0
tauD_c1	449999.0
tauD_c2	850000.0
tauD_c3	600000.0
tauD_c4	250000.0
tauD_d0	-0.0
tauD_dN	1000000.0
tauS_c1	815049.0
tauS_c2	862875.0
tauS_c3	834675.0
tauS_c4	884200.0
tauS_d0	-0.0
tauS_dN	1000000.0
x_c1_c2	1.0
x_c2_dN	1.0
x_c3_dN	1.0
x_c4_c3	1.0
x_d0_c1	1.0
x_d0_c4	1.0
